\Problem name: compact

Minimize
OBJROW: C
Subject To
ord(0,1):  - x(0,0) + x(0,1) >= 10
ord(0,2):  - x(0,1) + x(0,2) >= 5
ord(1,1):  - x(1,0) + x(1,2) >= 6
ord(1,2):  x(1,1) - x(1,2) >= 3
ord(2,1):  x(2,0) - x(2,2) >= 7
ord(2,2):  - x(2,0) + x(2,1) >= 7
ord(3,1):  - x(3,0) + x(3,1) >= 10
ord(3,2):  - x(3,1) + x(3,2) >= 10
triangle2(0,1,0):  y(0,1,0) + y(1,0,0) = 1
triangle2(0,1,1):  y(0,1,1) + y(1,0,1) = 1
triangle2(0,1,2):  y(0,1,2) + y(1,0,2) = 1
triangle2(0,2,0):  y(0,2,0) + y(2,0,0) = 1
triangle2(0,2,1):  y(0,2,1) + y(2,0,1) = 1
triangle2(0,2,2):  y(0,2,2) + y(2,0,2) = 1
triangle2(0,3,0):  y(0,3,0) + y(3,0,0) = 1
triangle2(0,3,1):  y(0,3,1) + y(3,0,1) = 1
triangle2(0,3,2):  y(0,3,2) + y(3,0,2) = 1
triangle2(1,2,0):  y(1,2,0) + y(2,1,0) = 1
triangle2(1,2,1):  y(1,2,1) + y(2,1,1) = 1
triangle2(1,2,2):  y(1,2,2) + y(2,1,2) = 1
triangle2(1,3,0):  y(1,3,0) + y(3,1,0) = 1
triangle2(1,3,1):  y(1,3,1) + y(3,1,1) = 1
triangle2(1,3,2):  y(1,3,2) + y(3,1,2) = 1
triangle2(2,3,0):  y(2,3,0) + y(3,2,0) = 1
triangle2(2,3,1):  y(2,3,1) + y(3,2,1) = 1
triangle2(2,3,2):  y(2,3,2) + y(3,2,2) = 1
MCLinV(0,1,0):  x(0,0) - v(0,1,0) - x(1,0) = 6
MCLinV(1,0,0):  - x(0,0) - v(1,0,0) + x(1,0) = 10
MCLin1(0,1,0):  u(0,1,0) >= -0
MCLin2(0,1,0):  -66 y(1,0,0) - u(0,1,0) <= -0
MCLin3(0,1,0):  40 y(1,0,0) + v(0,1,0) - u(0,1,0) <= 40
MCLin4(0,1,0):  40 y(1,0,0) - u(0,1,0) >= -0
MCLin5(0,1,0):  -66 y(1,0,0) + v(0,1,0) - u(0,1,0) >= -66
MCLin6(1,0,0):  u(1,0,0) >= -0
MCLin7(1,0,0):  -56 y(0,1,0) - u(1,0,0) <= -0
MCLin8(1,0,0):  50 y(0,1,0) + v(1,0,0) - u(1,0,0) <= 50
MCLin9(1,0,0):  50 y(0,1,0) - u(1,0,0) >= -0
MCLin10(1,0,0):  -56 y(0,1,0) + v(1,0,0) - u(1,0,0) >= -56
MCLinV(0,1,1):  x(0,1) - v(0,1,1) - x(1,1) = 1
MCLinV(1,0,1):  - x(0,1) - v(1,0,1) + x(1,1) = 5
MCLin1(0,1,1):  u(0,1,1) >= -0
MCLin2(0,1,1):  -60 y(1,0,1) - u(0,1,1) <= -0
MCLin3(0,1,1):  46 y(1,0,1) + v(0,1,1) - u(0,1,1) <= 46
MCLin4(0,1,1):  46 y(1,0,1) - u(0,1,1) >= -0
MCLin5(0,1,1):  -60 y(1,0,1) + v(0,1,1) - u(0,1,1) >= -60
MCLin6(1,0,1):  u(1,0,1) >= -0
MCLin7(1,0,1):  -52 y(0,1,1) - u(1,0,1) <= -0
MCLin8(1,0,1):  54 y(0,1,1) + v(1,0,1) - u(1,0,1) <= 54
MCLin9(1,0,1):  54 y(0,1,1) - u(1,0,1) >= -0
MCLin10(1,0,1):  -52 y(0,1,1) + v(1,0,1) - u(1,0,1) >= -52
MCLinV(0,1,2):  x(0,2) - v(0,1,2) - x(1,2) = 3
MCLinV(1,0,2):  - x(0,2) - v(1,0,2) + x(1,2) = 9
MCLin1(0,1,2):  u(0,1,2) >= -0
MCLin2(0,1,2):  -54 y(1,0,2) - u(0,1,2) <= -0
MCLin3(0,1,2):  52 y(1,0,2) + v(0,1,2) - u(0,1,2) <= 52
MCLin4(0,1,2):  52 y(1,0,2) - u(0,1,2) >= -0
MCLin5(0,1,2):  -54 y(1,0,2) + v(0,1,2) - u(0,1,2) >= -54
MCLin6(1,0,2):  u(1,0,2) >= -0
MCLin7(1,0,2):  -64 y(0,1,2) - u(1,0,2) <= -0
MCLin8(1,0,2):  42 y(0,1,2) + v(1,0,2) - u(1,0,2) <= 42
MCLin9(1,0,2):  42 y(0,1,2) - u(1,0,2) >= -0
MCLin10(1,0,2):  -64 y(0,1,2) + v(1,0,2) - u(1,0,2) >= -64
MCLinV(0,2,0):  x(0,0) - v(0,2,0) - x(2,0) = 7
MCLinV(2,0,0):  - x(0,0) - v(2,0,0) + x(2,0) = 10
MCLin1(0,2,0):  u(0,2,0) >= -0
MCLin2(0,2,0):  -69 y(2,0,0) - u(0,2,0) <= -0
MCLin3(0,2,0):  32 y(2,0,0) + v(0,2,0) - u(0,2,0) <= 32
MCLin4(0,2,0):  32 y(2,0,0) - u(0,2,0) >= -0
MCLin5(0,2,0):  -69 y(2,0,0) + v(0,2,0) - u(0,2,0) >= -69
MCLin6(2,0,0):  u(2,0,0) >= -0
MCLin7(2,0,0):  -49 y(0,2,0) - u(2,0,0) <= -0
MCLin8(2,0,0):  52 y(0,2,0) + v(2,0,0) - u(2,0,0) <= 52
MCLin9(2,0,0):  52 y(0,2,0) - u(2,0,0) >= -0
MCLin10(2,0,0):  -49 y(0,2,0) + v(2,0,0) - u(2,0,0) >= -49
MCLinV(0,2,1):  x(0,1) - v(0,2,1) - x(2,1) = 1
MCLinV(2,0,1):  - x(0,1) - v(2,0,1) + x(2,1) = 5
MCLin1(0,2,1):  u(0,2,1) >= -0
MCLin2(0,2,1):  -60 y(2,0,1) - u(0,2,1) <= -0
MCLin3(0,2,1):  41 y(2,0,1) + v(0,2,1) - u(0,2,1) <= 41
MCLin4(0,2,1):  41 y(2,0,1) - u(0,2,1) >= -0
MCLin5(0,2,1):  -60 y(2,0,1) + v(0,2,1) - u(0,2,1) >= -60
MCLin6(2,0,1):  u(2,0,1) >= -0
MCLin7(2,0,1):  -47 y(0,2,1) - u(2,0,1) <= -0
MCLin8(2,0,1):  54 y(0,2,1) + v(2,0,1) - u(2,0,1) <= 54
MCLin9(2,0,1):  54 y(0,2,1) - u(2,0,1) >= -0
MCLin10(2,0,1):  -47 y(0,2,1) + v(2,0,1) - u(2,0,1) >= -47
MCLinV(0,2,2):  x(0,2) - v(0,2,2) - x(2,2) = 7
MCLinV(2,0,2):  - x(0,2) - v(2,0,2) + x(2,2) = 9
MCLin1(0,2,2):  u(0,2,2) >= -0
MCLin2(0,2,2):  -47 y(2,0,2) - u(0,2,2) <= -0
MCLin3(0,2,2):  54 y(2,0,2) + v(0,2,2) - u(0,2,2) <= 54
MCLin4(0,2,2):  54 y(2,0,2) - u(0,2,2) >= -0
MCLin5(0,2,2):  -47 y(2,0,2) + v(0,2,2) - u(0,2,2) >= -47
MCLin6(2,0,2):  u(2,0,2) >= -0
MCLin7(2,0,2):  -70 y(0,2,2) - u(2,0,2) <= -0
MCLin8(2,0,2):  31 y(0,2,2) + v(2,0,2) - u(2,0,2) <= 31
MCLin9(2,0,2):  31 y(0,2,2) - u(2,0,2) >= -0
MCLin10(2,0,2):  -70 y(0,2,2) + v(2,0,2) - u(2,0,2) >= -70
MCLinV(0,3,0):  x(0,0) - v(0,3,0) - x(3,0) = 10
MCLinV(3,0,0):  - x(0,0) - v(3,0,0) + x(3,0) = 10
MCLin1(0,3,0):  u(0,3,0) >= -0
MCLin2(0,3,0):  -59 y(3,0,0) - u(0,3,0) <= -0
MCLin3(0,3,0):  36 y(3,0,0) + v(0,3,0) - u(0,3,0) <= 36
MCLin4(0,3,0):  36 y(3,0,0) - u(0,3,0) >= -0
MCLin5(0,3,0):  -59 y(3,0,0) + v(0,3,0) - u(0,3,0) >= -59
MCLin6(3,0,0):  u(3,0,0) >= -0
MCLin7(3,0,0):  -56 y(0,3,0) - u(3,0,0) <= -0
MCLin8(3,0,0):  39 y(0,3,0) + v(3,0,0) - u(3,0,0) <= 39
MCLin9(3,0,0):  39 y(0,3,0) - u(3,0,0) >= -0
MCLin10(3,0,0):  -56 y(0,3,0) + v(3,0,0) - u(3,0,0) >= -56
MCLinV(0,3,1):  x(0,1) - v(0,3,1) - x(3,1) = 10
MCLinV(3,0,1):  - x(0,1) - v(3,0,1) + x(3,1) = 5
MCLin1(0,3,1):  u(0,3,1) >= -0
MCLin2(0,3,1):  -59 y(3,0,1) - u(0,3,1) <= -0
MCLin3(0,3,1):  36 y(3,0,1) + v(0,3,1) - u(0,3,1) <= 36
MCLin4(0,3,1):  36 y(3,0,1) - u(0,3,1) >= -0
MCLin5(0,3,1):  -59 y(3,0,1) + v(0,3,1) - u(0,3,1) >= -59
MCLin6(3,0,1):  u(3,0,1) >= -0
MCLin7(3,0,1):  -51 y(0,3,1) - u(3,0,1) <= -0
MCLin8(3,0,1):  44 y(0,3,1) + v(3,0,1) - u(3,0,1) <= 44
MCLin9(3,0,1):  44 y(0,3,1) - u(3,0,1) >= -0
MCLin10(3,0,1):  -51 y(0,3,1) + v(3,0,1) - u(3,0,1) >= -51
MCLinV(0,3,2):  x(0,2) - v(0,3,2) - x(3,2) = 1
MCLinV(3,0,2):  - x(0,2) - v(3,0,2) + x(3,2) = 9
MCLin1(0,3,2):  u(0,3,2) >= -0
MCLin2(0,3,2):  -55 y(3,0,2) - u(0,3,2) <= -0
MCLin3(0,3,2):  40 y(3,0,2) + v(0,3,2) - u(0,3,2) <= 40
MCLin4(0,3,2):  40 y(3,0,2) - u(0,3,2) >= -0
MCLin5(0,3,2):  -55 y(3,0,2) + v(0,3,2) - u(0,3,2) >= -55
MCLin6(3,0,2):  u(3,0,2) >= -0
MCLin7(3,0,2):  -50 y(0,3,2) - u(3,0,2) <= -0
MCLin8(3,0,2):  45 y(0,3,2) + v(3,0,2) - u(3,0,2) <= 45
MCLin9(3,0,2):  45 y(0,3,2) - u(3,0,2) >= -0
MCLin10(3,0,2):  -50 y(0,3,2) + v(3,0,2) - u(3,0,2) >= -50
MCLinV(1,2,0):  x(1,0) - v(1,2,0) - x(2,0) = 7
MCLinV(2,1,0):  - x(1,0) - v(2,1,0) + x(2,0) = 6
MCLin1(1,2,0):  u(1,2,0) >= -0
MCLin2(1,2,0):  -69 y(2,1,0) - u(1,2,0) <= -0
MCLin3(1,2,0):  46 y(2,1,0) + v(1,2,0) - u(1,2,0) <= 46
MCLin4(1,2,0):  46 y(2,1,0) - u(1,2,0) >= -0
MCLin5(1,2,0):  -69 y(2,1,0) + v(1,2,0) - u(1,2,0) >= -69
MCLin6(2,1,0):  u(2,1,0) >= -0
MCLin7(2,1,0):  -59 y(1,2,0) - u(2,1,0) <= -0
MCLin8(2,1,0):  56 y(1,2,0) + v(2,1,0) - u(2,1,0) <= 56
MCLin9(2,1,0):  56 y(1,2,0) - u(2,1,0) >= -0
MCLin10(2,1,0):  -59 y(1,2,0) + v(2,1,0) - u(2,1,0) >= -59
MCLinV(1,2,1):  x(1,1) - v(1,2,1) - x(2,1) = 1
MCLinV(2,1,1):  - x(1,1) - v(2,1,1) + x(2,1) = 1
MCLin1(1,2,1):  u(1,2,1) >= -0
MCLin2(1,2,1):  -61 y(2,1,1) - u(1,2,1) <= -0
MCLin3(1,2,1):  54 y(2,1,1) + v(1,2,1) - u(1,2,1) <= 54
MCLin4(1,2,1):  54 y(2,1,1) - u(1,2,1) >= -0
MCLin5(1,2,1):  -61 y(2,1,1) + v(1,2,1) - u(1,2,1) >= -61
MCLin6(2,1,1):  u(2,1,1) >= -0
MCLin7(2,1,1):  -56 y(1,2,1) - u(2,1,1) <= -0
MCLin8(2,1,1):  59 y(1,2,1) + v(2,1,1) - u(2,1,1) <= 59
MCLin9(2,1,1):  59 y(1,2,1) - u(2,1,1) >= -0
MCLin10(2,1,1):  -56 y(1,2,1) + v(2,1,1) - u(2,1,1) >= -56
MCLinV(1,2,2):  x(1,2) - v(1,2,2) - x(2,2) = 7
MCLinV(2,1,2):  - x(1,2) - v(2,1,2) + x(2,2) = 3
MCLin1(1,2,2):  u(1,2,2) >= -0
MCLin2(1,2,2):  -56 y(2,1,2) - u(1,2,2) <= -0
MCLin3(1,2,2):  59 y(2,1,2) + v(1,2,2) - u(1,2,2) <= 59
MCLin4(1,2,2):  59 y(2,1,2) - u(1,2,2) >= -0
MCLin5(1,2,2):  -56 y(2,1,2) + v(1,2,2) - u(1,2,2) >= -56
MCLin6(2,1,2):  u(2,1,2) >= -0
MCLin7(2,1,2):  -69 y(1,2,2) - u(2,1,2) <= -0
MCLin8(2,1,2):  46 y(1,2,2) + v(2,1,2) - u(2,1,2) <= 46
MCLin9(2,1,2):  46 y(1,2,2) - u(2,1,2) >= -0
MCLin10(2,1,2):  -69 y(1,2,2) + v(2,1,2) - u(2,1,2) >= -69
MCLinV(1,3,0):  x(1,0) - v(1,3,0) - x(3,0) = 10
MCLinV(3,1,0):  - x(1,0) - v(3,1,0) + x(3,0) = 6
MCLin1(1,3,0):  u(1,3,0) >= -0
MCLin2(1,3,0):  -59 y(3,1,0) - u(1,3,0) <= -0
MCLin3(1,3,0):  50 y(3,1,0) + v(1,3,0) - u(1,3,0) <= 50
MCLin4(1,3,0):  50 y(3,1,0) - u(1,3,0) >= -0
MCLin5(1,3,0):  -59 y(3,1,0) + v(1,3,0) - u(1,3,0) >= -59
MCLin6(3,1,0):  u(3,1,0) >= -0
MCLin7(3,1,0):  -66 y(1,3,0) - u(3,1,0) <= -0
MCLin8(3,1,0):  43 y(1,3,0) + v(3,1,0) - u(3,1,0) <= 43
MCLin9(3,1,0):  43 y(1,3,0) - u(3,1,0) >= -0
MCLin10(3,1,0):  -66 y(1,3,0) + v(3,1,0) - u(3,1,0) >= -66
MCLinV(1,3,1):  x(1,1) - v(1,3,1) - x(3,1) = 10
MCLinV(3,1,1):  - x(1,1) - v(3,1,1) + x(3,1) = 1
MCLin1(1,3,1):  u(1,3,1) >= -0
MCLin2(1,3,1):  -60 y(3,1,1) - u(1,3,1) <= -0
MCLin3(1,3,1):  49 y(3,1,1) + v(1,3,1) - u(1,3,1) <= 49
MCLin4(1,3,1):  49 y(3,1,1) - u(1,3,1) >= -0
MCLin5(1,3,1):  -60 y(3,1,1) + v(1,3,1) - u(1,3,1) >= -60
MCLin6(3,1,1):  u(3,1,1) >= -0
MCLin7(3,1,1):  -60 y(1,3,1) - u(3,1,1) <= -0
MCLin8(3,1,1):  49 y(1,3,1) + v(3,1,1) - u(3,1,1) <= 49
MCLin9(3,1,1):  49 y(1,3,1) - u(3,1,1) >= -0
MCLin10(3,1,1):  -60 y(1,3,1) + v(3,1,1) - u(3,1,1) >= -60
MCLinV(1,3,2):  x(1,2) - v(1,3,2) - x(3,2) = 1
MCLinV(3,1,2):  - x(1,2) - v(3,1,2) + x(3,2) = 3
MCLin1(1,3,2):  u(1,3,2) >= -0
MCLin2(1,3,2):  -64 y(3,1,2) - u(1,3,2) <= -0
MCLin3(1,3,2):  45 y(3,1,2) + v(1,3,2) - u(1,3,2) <= 45
MCLin4(1,3,2):  45 y(3,1,2) - u(1,3,2) >= -0
MCLin5(1,3,2):  -64 y(3,1,2) + v(1,3,2) - u(1,3,2) >= -64
MCLin6(3,1,2):  u(3,1,2) >= -0
MCLin7(3,1,2):  -49 y(1,3,2) - u(3,1,2) <= -0
MCLin8(3,1,2):  60 y(1,3,2) + v(3,1,2) - u(3,1,2) <= 60
MCLin9(3,1,2):  60 y(1,3,2) - u(3,1,2) >= -0
MCLin10(3,1,2):  -49 y(1,3,2) + v(3,1,2) - u(3,1,2) >= -49
MCLinV(2,3,0):  x(2,0) - v(2,3,0) - x(3,0) = 10
MCLinV(3,2,0):  - x(2,0) - v(3,2,0) + x(3,0) = 7
MCLin1(2,3,0):  u(2,3,0) >= -0
MCLin2(2,3,0):  -52 y(3,2,0) - u(2,3,0) <= -0
MCLin3(2,3,0):  52 y(3,2,0) + v(2,3,0) - u(2,3,0) <= 52
MCLin4(2,3,0):  52 y(3,2,0) - u(2,3,0) >= -0
MCLin5(2,3,0):  -52 y(3,2,0) + v(2,3,0) - u(2,3,0) >= -52
MCLin6(3,2,0):  u(3,2,0) >= -0
MCLin7(3,2,0):  -69 y(2,3,0) - u(3,2,0) <= -0
MCLin8(3,2,0):  35 y(2,3,0) + v(3,2,0) - u(3,2,0) <= 35
MCLin9(3,2,0):  35 y(2,3,0) - u(3,2,0) >= -0
MCLin10(3,2,0):  -69 y(2,3,0) + v(3,2,0) - u(3,2,0) >= -69
MCLinV(2,3,1):  x(2,1) - v(2,3,1) - x(3,1) = 10
MCLinV(3,2,1):  - x(2,1) - v(3,2,1) + x(3,1) = 1
MCLin1(2,3,1):  u(2,3,1) >= -0
MCLin2(2,3,1):  -55 y(3,2,1) - u(2,3,1) <= -0
MCLin3(2,3,1):  49 y(3,2,1) + v(2,3,1) - u(2,3,1) <= 49
MCLin4(2,3,1):  49 y(3,2,1) - u(2,3,1) >= -0
MCLin5(2,3,1):  -55 y(3,2,1) + v(2,3,1) - u(2,3,1) >= -55
MCLin6(3,2,1):  u(3,2,1) >= -0
MCLin7(3,2,1):  -60 y(2,3,1) - u(3,2,1) <= -0
MCLin8(3,2,1):  44 y(2,3,1) + v(3,2,1) - u(3,2,1) <= 44
MCLin9(3,2,1):  44 y(2,3,1) - u(3,2,1) >= -0
MCLin10(3,2,1):  -60 y(2,3,1) + v(3,2,1) - u(3,2,1) >= -60
MCLinV(2,3,2):  x(2,2) - v(2,3,2) - x(3,2) = 1
MCLinV(3,2,2):  - x(2,2) - v(3,2,2) + x(3,2) = 7
MCLin1(2,3,2):  u(2,3,2) >= -0
MCLin2(2,3,2):  -70 y(3,2,2) - u(2,3,2) <= -0
MCLin3(2,3,2):  34 y(3,2,2) + v(2,3,2) - u(2,3,2) <= 34
MCLin4(2,3,2):  34 y(3,2,2) - u(2,3,2) >= -0
MCLin5(2,3,2):  -70 y(3,2,2) + v(2,3,2) - u(2,3,2) >= -70
MCLin6(3,2,2):  u(3,2,2) >= -0
MCLin7(3,2,2):  -42 y(2,3,2) - u(3,2,2) <= -0
MCLin8(3,2,2):  62 y(2,3,2) + v(3,2,2) - u(3,2,2) <= 62
MCLin9(3,2,2):  62 y(2,3,2) - u(3,2,2) >= -0
MCLin10(3,2,2):  -42 y(2,3,2) + v(3,2,2) - u(3,2,2) >= -42
makespan(0):  C - x(0,2) >= 9
makespan(1):  C - x(1,1) >= 1
makespan(2):  C - x(2,1) >= 1
makespan(3):  C - x(3,2) >= 1
cut_clique_0(0123,0):  0.10000 x(0,0) + 0.10000 x(3,0) >= 1
cut_clique_0(013,0):  0.10000 x(0,0) + 0.10000 x(3,0) >= 1
cut_clique_0(012,0):  0.16667 x(0,0) + 0.10000 x(1,0) >= 1
cut_clique_0(023,0):  0.10000 x(0,0) + 0.10000 x(3,0) >= 1
cut_clique_0(123,0):  0.10000 x(1,0) + 0.16667 x(3,0) >= 1
cut_clique_0(0123,1):  0.02222 x(0,1) + 0.00444 x(2,1) + 0.04444 x(3,1) >= 1
cut_clique_0(013,1):  0.02500 x(0,1) + 0.05000 x(3,1) >= 1
cut_clique_0(023,1):  0.02222 x(0,1) + 0.00444 x(2,1) + 0.04444 x(3,1) >= 1
cut_clique_0(123,1):  0.03125 x(2,1) + 0.03750 x(3,1) >= 1
cut_clique_0(0123,2):  0.01961 x(0,2) + 0.02941 x(3,2) >= 1
cut_clique_0(013,2):  0.01961 x(0,2) + 0.02941 x(3,2) >= 1
cut_clique_0(023,2):  0.01961 x(0,2) + 0.02941 x(3,2) >= 1
cut_clique_1(0123,0):  0.02488 x(0,0) + 0.01493 x(1,0) + 0.01741 x(2,0) + 0.02488 x(3,0) >= 1
cut_clique_1(013,0):  0.04545 x(0,0) + 0.02727 x(1,0) + 0.04545 x(3,0) >= 1
cut_clique_1(023,0):  0.04167 x(0,0) + 0.02917 x(2,0) + 0.04167 x(3,0) >= 1
Bounds
 0 <= C <= 70
 0 <= x(0,0) <= 46
 0 <= y(0,1,0) <= 1
 0 <= y(1,0,0) <= 1
 -66 <= v(0,1,0) <= 40
 -56 <= v(1,0,0) <= 50
 -700 <= u(0,1,0)
 -700 <= u(1,0,0)
 0 <= y(0,2,0) <= 1
 0 <= y(2,0,0) <= 1
 -69 <= v(0,2,0) <= 32
 -49 <= v(2,0,0) <= 52
 -700 <= u(0,2,0)
 -700 <= u(2,0,0)
 0 <= y(0,3,0) <= 1
 0 <= y(3,0,0) <= 1
 -59 <= v(0,3,0) <= 36
 -56 <= v(3,0,0) <= 39
 -700 <= u(0,3,0)
 -700 <= u(3,0,0)
 0 <= x(1,0) <= 60
 0 <= y(1,2,0) <= 1
 0 <= y(2,1,0) <= 1
 -69 <= v(1,2,0) <= 46
 -59 <= v(2,1,0) <= 56
 -700 <= u(1,2,0)
 -700 <= u(2,1,0)
 0 <= y(1,3,0) <= 1
 0 <= y(3,1,0) <= 1
 -59 <= v(1,3,0) <= 50
 -66 <= v(3,1,0) <= 43
 -700 <= u(1,3,0)
 -700 <= u(3,1,0)
 7 <= x(2,0) <= 62
 0 <= y(2,3,0) <= 1
 0 <= y(3,2,0) <= 1
 -52 <= v(2,3,0) <= 52
 -69 <= v(3,2,0) <= 35
 -700 <= u(2,3,0)
 -700 <= u(3,2,0)
 0 <= x(3,0) <= 49
 10 <= x(0,1) <= 56
 0 <= y(0,1,1) <= 1
 0 <= y(1,0,1) <= 1
 -60 <= v(0,1,1) <= 46
 -52 <= v(1,0,1) <= 54
 -700 <= u(0,1,1)
 -700 <= u(1,0,1)
 0 <= y(0,2,1) <= 1
 0 <= y(2,0,1) <= 1
 -60 <= v(0,2,1) <= 41
 -47 <= v(2,0,1) <= 54
 -700 <= u(0,2,1)
 -700 <= u(2,0,1)
 0 <= y(0,3,1) <= 1
 0 <= y(3,0,1) <= 1
 -59 <= v(0,3,1) <= 36
 -51 <= v(3,0,1) <= 44
 -700 <= u(0,3,1)
 -700 <= u(3,0,1)
 9 <= x(1,1) <= 69
 0 <= y(1,2,1) <= 1
 0 <= y(2,1,1) <= 1
 -61 <= v(1,2,1) <= 54
 -56 <= v(2,1,1) <= 59
 -700 <= u(1,2,1)
 -700 <= u(2,1,1)
 0 <= y(1,3,1) <= 1
 0 <= y(3,1,1) <= 1
 -60 <= v(1,3,1) <= 49
 -60 <= v(3,1,1) <= 49
 -700 <= u(1,3,1)
 -700 <= u(3,1,1)
 14 <= x(2,1) <= 69
 0 <= y(2,3,1) <= 1
 0 <= y(3,2,1) <= 1
 -55 <= v(2,3,1) <= 49
 -60 <= v(3,2,1) <= 44
 -700 <= u(2,3,1)
 -700 <= u(3,2,1)
 10 <= x(3,1) <= 59
 15 <= x(0,2) <= 61
 0 <= y(0,1,2) <= 1
 0 <= y(1,0,2) <= 1
 -54 <= v(0,1,2) <= 52
 -64 <= v(1,0,2) <= 42
 -700 <= u(0,1,2)
 -700 <= u(1,0,2)
 0 <= y(0,2,2) <= 1
 0 <= y(2,0,2) <= 1
 -47 <= v(0,2,2) <= 54
 -70 <= v(2,0,2) <= 31
 -700 <= u(0,2,2)
 -700 <= u(2,0,2)
 0 <= y(0,3,2) <= 1
 0 <= y(3,0,2) <= 1
 -55 <= v(0,3,2) <= 40
 -50 <= v(3,0,2) <= 45
 -700 <= u(0,3,2)
 -700 <= u(3,0,2)
 6 <= x(1,2) <= 66
 0 <= y(1,2,2) <= 1
 0 <= y(2,1,2) <= 1
 -56 <= v(1,2,2) <= 59
 -69 <= v(2,1,2) <= 46
 -700 <= u(1,2,2)
 -700 <= u(2,1,2)
 0 <= y(1,3,2) <= 1
 0 <= y(3,1,2) <= 1
 -64 <= v(1,3,2) <= 45
 -49 <= v(3,1,2) <= 60
 -700 <= u(1,3,2)
 -700 <= u(3,1,2)
 0 <= x(2,2) <= 55
 0 <= y(2,3,2) <= 1
 0 <= y(3,2,2) <= 1
 -70 <= v(2,3,2) <= 34
 -42 <= v(3,2,2) <= 62
 -700 <= u(2,3,2)
 -700 <= u(3,2,2)
 20 <= x(3,2) <= 69
Integers
C x(0,0) y(0,1,0) y(1,0,0) v(0,1,0) v(1,0,0) u(0,1,0) u(1,0,0) y(0,2,0) y(2,0,0) 
v(0,2,0) v(2,0,0) u(0,2,0) u(2,0,0) y(0,3,0) y(3,0,0) v(0,3,0) v(3,0,0) u(0,3,0) u(3,0,0) 
x(1,0) y(1,2,0) y(2,1,0) v(1,2,0) v(2,1,0) u(1,2,0) u(2,1,0) y(1,3,0) y(3,1,0) v(1,3,0) 
v(3,1,0) u(1,3,0) u(3,1,0) x(2,0) y(2,3,0) y(3,2,0) v(2,3,0) v(3,2,0) u(2,3,0) u(3,2,0) 
x(3,0) x(0,1) y(0,1,1) y(1,0,1) v(0,1,1) v(1,0,1) u(0,1,1) u(1,0,1) y(0,2,1) y(2,0,1) 
v(0,2,1) v(2,0,1) u(0,2,1) u(2,0,1) y(0,3,1) y(3,0,1) v(0,3,1) v(3,0,1) u(0,3,1) u(3,0,1) 
x(1,1) y(1,2,1) y(2,1,1) v(1,2,1) v(2,1,1) u(1,2,1) u(2,1,1) y(1,3,1) y(3,1,1) v(1,3,1) 
v(3,1,1) u(1,3,1) u(3,1,1) x(2,1) y(2,3,1) y(3,2,1) v(2,3,1) v(3,2,1) u(2,3,1) u(3,2,1) 
x(3,1) x(0,2) y(0,1,2) y(1,0,2) v(0,1,2) v(1,0,2) u(0,1,2) u(1,0,2) y(0,2,2) y(2,0,2) 
v(0,2,2) v(2,0,2) u(0,2,2) u(2,0,2) y(0,3,2) y(3,0,2) v(0,3,2) v(3,0,2) u(0,3,2) u(3,0,2) 
x(1,2) y(1,2,2) y(2,1,2) v(1,2,2) v(2,1,2) u(1,2,2) u(2,1,2) y(1,3,2) y(3,1,2) v(1,3,2) 
v(3,1,2) u(1,3,2) u(3,1,2) x(2,2) y(2,3,2) y(3,2,2) v(2,3,2) v(3,2,2) u(2,3,2) u(3,2,2) 
x(3,2) 
End
